p edge 50 111
e 0 3
e 0 4
e 0 8
e 0 20
e 0 28
e 0 44
e 0 49
e 1 7
e 1 12
e 1 15
e 1 17
e 1 36
e 1 38
e 2 6
e 2 29
e 2 30
e 2 48
e 3 13
e 3 20
e 3 37
e 4 22
e 4 27
e 4 44
e 4 46
e 4 47
e 4 48
e 4 49
e 5 11
e 5 21
e 5 30
e 5 42
e 5 48
e 6 9
e 6 23
e 6 27
e 6 38
e 6 41
e 6 44
e 7 8
e 7 26
e 9 12
e 9 16
e 9 19
e 9 23
e 9 29
e 9 44
e 9 47
e 10 23
e 10 25
e 10 29
e 10 35
e 10 46
e 11 26
e 11 29
e 12 44
e 12 46
e 13 17
e 13 18
e 13 35
e 14 42
e 15 29
e 16 29
e 16 31
e 17 23
e 17 30
e 17 31
e 17 37
e 18 21
e 18 38
e 18 47
e 19 43
e 20 29
e 20 30
e 20 36
e 21 31
e 21 37
e 22 31
e 22 47
e 24 44
e 25 44
e 26 33
e 26 36
e 26 48
e 27 34
e 28 40
e 29 36
e 29 39
e 29 43
e 30 33
e 30 42
e 30 48
e 31 35
e 31 38
e 31 43
e 32 40
e 32 49
e 33 39
e 35 38
e 35 40
e 35 44
e 35 46
e 36 44
e 36 47
e 37 42
e 37 47
e 39 42
e 39 48
e 40 42
e 40 45
e 44 46
e 46 47
